\ SCIP STATISTICS
\   Problem name     : CapacitatedFacilityLocation-20-10
\   Variables        : 210 (210 binary, 0 integer, 0 implicit integer, 0 continuous)
\   Constraints      : 231
Minimize
 Obj: +998.153791493574 x0 +642.212634363392 x1 +1001.67119872055 x2 +735.110255092798 x3 +844.662647252571 x4
      +1006.14622506356 x5 +754.491638177529 x6 +993.36184954957 x7 +1036.9262097807 x8 +861.775955677504 x9
      +28.8505919675852 x10 +13.1975046660442 x11 +15.5331499916394 x12 +56.6498603553624 x13 +79.9129529020928 x14
      +15.9663700358019 x15 +52.3458633792127 x16 +61.2431700871074 x17 +17.4245433093226 x18 +35.1670353551814 x19
      +37.5262159656927 x20 +27.842757585866 x21 +25.5166609042015 x22 +35.037280778802 x23 +32.7888193106458 x24
      +20.7704021156466 x25 +48.6158309271494 x26 +16.1213737207046 x27 +33.2830216089554 x28 +33.0566374714848 x29
      +30.0088123437699 x30 +27.5884135800504 x31 +62.6849382033693 x32 +29.440740216042 x33 +68.0639402815974 x34
      +49.1756402464577 x35 +60.5545309481349 x36 +68.8902186496329 x37 +58.1848684164504 x38 +86.6673481977957 x39
      +140.807860656097 x40 +121.703870792451 x41 +169.114083063464 x42 +52.9758116048644 x43 +16.3473027695698 x44
      +134.448745030899 x45 +185.999460057393 x46 +78.4778175528743 x47 +177.509864463728 x48 +215.039848758265 x49
      +106.159753497837 x50 +69.5290404834632 x51 +60.1361420284086 x52 +109.4545513216 x53 +116.459528956845 x54
      +41.1367950784353 x55 +147.54523079881 x56 +59.0386170182806 x57 +88.7690110525636 x58 +92.0571076546776 x59
      +89.9817150411887 x60 +82.3403923812255 x61 +111.527193753642 x62 +35.9917717839808 x63 +15.0276118401996 x64
      +91.8694471843634 x65 +113.642242629879 x66 +60.0373189453318 x67 +114.591083086993 x68 +137.838554915642 x69
      +15.1134365902808 x70 +59.9036828278993 x71 +107.86432224706 x72 +92.6928052700463 x73 +164.701109221727 x74
      +101.861935270539 x75 +57.0067869262867 x76 +164.09094429636 x77 +81.5224348221644 x78 +135.184535921656 x79
      +17.2026407503935 x80 +33.2345699901865 x81 +41.0401672404004 x82 +55.2652062468728 x83 +82.503048328496 x84
      +45.8164736228177 x85 +12.6096600796725 x86 +78.1498486968443 x87 +25.4659901305135 x88 +43.5550792132652 x89
      +51.0555429217107 x90 +82.7576111206556 x91 +94.5365333535656 x92 +162.612476318786 x93 +237.335754255373 x94
      +112.969991170274 x95 +62.3952668541114 x96 +214.419980069951 x97 +48.3027177262857 x98 +100.952099105115 x99
      +57.4411050647633 x100 +25.8120673047537 x101 +26.601384728011 x102 +78.4081197069752 x103 +102.61604866816 x104
      +2.04734025422474 x105 +93.7152603468708 x106 +68.2342412024717 x107 +44.4011856286989 x108 +60.0441007268608 x109
      +207.925009606316 x110 +153.101928991339 x111 +122.341686866889 x112 +216.260170662104 x113 +218.311987295256 x114
      +106.722099769269 x115 +268.598975977403 x116 +123.601116808531 x117 +169.81068232494 x118 +157.877145588771 x119
      +40.0174604833884 x120 +26.8673074834825 x121 +20.1488686619678 x122 +44.0647088901115 x123 +47.6958249092372 x124
      +15.5859001873028 x125 +54.6698985994958 x126 +26.6927169258333 x127 +31.3591815986856 x128 +30.6203852813379 x129
      +18.8131366459451 x130 +13.7652322559852 x131 +32.2466771418102 x132 +15.2374597523967 x133 +33.9032835268209 x134
      +23.8508395018777 x135 +35.8532412285111 x136 +32.7467034706128 x137 +31.4897800668593 x138 +45.9063138902226 x139
      +99.7462079599544 x140 +74.5952042489344 x141 +66.3289883647089 x142 +95.4424363029695 x143 +90.4876441186245 x144
      +55.413414538098 x145 +128.235064274685 x146 +47.150496068333 x147 +86.9744387155867 x148 +84.7223407905252 x149
      +131.999976742431 x150 +195.669871167271 x151 +242.171587338782 x152 +207.173399427905 x153 +301.494231851394 x154
      +246.91279851171 x155 +68.6798095248828 x156 +324.832433372886 x157 +193.589816853781 x158 +253.544418657466 x159
      +30.8451185781694 x160 +48.5383728637734 x161 +74.4384226908952 x162 +130.568366158823 x163 +199.569826276039 x164
      +82.0202254111036 x165 +76.1206083353004 x166 +175.655226861152 x167 +40.7315194889642 x168 +98.5201223813173 x169
      +11.2442460233877 x170 +33.9288643891407 x171 +57.9103393483561 x172 +46.7835874547913 x173 +83.3785504367432 x174
      +54.9695456508821 x175 +26.506244596405 x176 +84.9197319896985 x177 +44.2020231061022 x178 +71.0150645364214 x179
      +133.532303303801 x180 +108.430842999632 x181 +146.00440538722 x182 +63.1827427826994 x183 +25.3285717411561 x184
      +112.777641863738 x185 +178.922853239963 x186 +48.4059228175027 x187 +159.041559189043 x188 +189.086367056143 x189
      +69.6124860977776 x190 +116.069251691391 x191 +149.356265173029 x192 +133.30780395418 x193 +202.449556811868 x194
      +152.916962225063 x195 +25.0777776329568 x196 +213.050520369078 x197 +114.558111771075 x198 +159.349248209744 x199
      +199.972962002172 x200 +154.379062499803 x201 +74.6806959580773 x202 +274.172723346672 x203 +318.60973348343 x204
      +109.680135152524 x205 +253.115336006106 x206 +226.458930285574 x207 +120.351842829569 x208 +73.5036096004413 x209
Subject to
 c0: +1 x10 +1 x11 +1 x12 +1 x13 +1 x14 +1 x15 +1 x16 +1 x17 +1 x18 +1 x19 >= +1
 c1: +1 x20 +1 x21 +1 x22 +1 x23 +1 x24 +1 x25 +1 x26 +1 x27 +1 x28 +1 x29 >= +1
 c2: +1 x30 +1 x31 +1 x32 +1 x33 +1 x34 +1 x35 +1 x36 +1 x37 +1 x38 +1 x39 >= +1
 c3: +1 x40 +1 x41 +1 x42 +1 x43 +1 x44 +1 x45 +1 x46 +1 x47 +1 x48 +1 x49 >= +1
 c4: +1 x50 +1 x51 +1 x52 +1 x53 +1 x54 +1 x55 +1 x56 +1 x57 +1 x58 +1 x59 >= +1
 c5: +1 x60 +1 x61 +1 x62 +1 x63 +1 x64 +1 x65 +1 x66 +1 x67 +1 x68 +1 x69 >= +1
 c6: +1 x70 +1 x71 +1 x72 +1 x73 +1 x74 +1 x75 +1 x76 +1 x77 +1 x78 +1 x79 >= +1
 c7: +1 x80 +1 x81 +1 x82 +1 x83 +1 x84 +1 x85 +1 x86 +1 x87 +1 x88 +1 x89 >= +1
 c8: +1 x90 +1 x91 +1 x92 +1 x93 +1 x94 +1 x95 +1 x96 +1 x97 +1 x98 +1 x99 >= +1
 c9: +1 x100 +1 x101 +1 x102 +1 x103 +1 x104 +1 x105 +1 x106 +1 x107 +1 x108 +1 x109 >= +1
 c10: +1 x110 +1 x111 +1 x112 +1 x113 +1 x114 +1 x115 +1 x116 +1 x117 +1 x118 +1 x119 >= +1
 c11: +1 x120 +1 x121 +1 x122 +1 x123 +1 x124 +1 x125 +1 x126 +1 x127 +1 x128 +1 x129 >= +1
 c12: +1 x130 +1 x131 +1 x132 +1 x133 +1 x134 +1 x135 +1 x136 +1 x137 +1 x138 +1 x139 >= +1
 c13: +1 x140 +1 x141 +1 x142 +1 x143 +1 x144 +1 x145 +1 x146 +1 x147 +1 x148 +1 x149 >= +1
 c14: +1 x150 +1 x151 +1 x152 +1 x153 +1 x154 +1 x155 +1 x156 +1 x157 +1 x158 +1 x159 >= +1
 c15: +1 x160 +1 x161 +1 x162 +1 x163 +1 x164 +1 x165 +1 x166 +1 x167 +1 x168 +1 x169 >= +1
 c16: +1 x170 +1 x171 +1 x172 +1 x173 +1 x174 +1 x175 +1 x176 +1 x177 +1 x178 +1 x179 >= +1
 c17: +1 x180 +1 x181 +1 x182 +1 x183 +1 x184 +1 x185 +1 x186 +1 x187 +1 x188 +1 x189 >= +1
 c18: +1 x190 +1 x191 +1 x192 +1 x193 +1 x194 +1 x195 +1 x196 +1 x197 +1 x198 +1 x199 >= +1
 c19: +1 x200 +1 x201 +1 x202 +1 x203 +1 x204 +1 x205 +1 x206 +1 x207 +1 x208 +1 x209 >= +1
 c20: +12 x10 +5 x20 +15 x30 +24 x40 +19 x50 +14 x60 +26 x70 +10 x80 +29 x90 +17 x100 +29 x110 +7 x120
  +8 x130 +13 x140 +33 x150 +28 x160 +13 x170 +22 x180 +24 x190 +35 x200 -238 x0 <= +0
 c21: +12 x11 +5 x21 +15 x31 +24 x41 +19 x51 +14 x61 +26 x71 +10 x81 +29 x91 +17 x101 +29 x111 +7 x121
  +8 x131 +13 x141 +33 x151 +28 x161 +13 x171 +22 x181 +24 x191 +35 x201 -83 x1 <= +0
 c22: +12 x12 +5 x22 +15 x32 +24 x42 +19 x52 +14 x62 +26 x72 +10 x82 +29 x92 +17 x102 +29 x112 +7 x122
  +8 x132 +13 x142 +33 x152 +28 x162 +13 x172 +22 x182 +24 x192 +35 x202 -241 x2 <= +0
 c23: +12 x13 +5 x23 +15 x33 +24 x43 +19 x53 +14 x63 +26 x73 +10 x83 +29 x93 +17 x103 +29 x113 +7 x123
  +8 x133 +13 x143 +33 x153 +28 x163 +13 x173 +22 x183 +24 x193 +35 x203 -149 x3 <= +0
 c24: +12 x14 +5 x24 +15 x34 +24 x44 +19 x54 +14 x64 +26 x74 +10 x84 +29 x94 +17 x104 +29 x114 +7 x124
  +8 x134 +13 x144 +33 x154 +28 x164 +13 x174 +22 x184 +24 x194 +35 x204 -181 x4 <= +0
 c25: +12 x15 +5 x25 +15 x35 +24 x45 +19 x55 +14 x65 +26 x75 +10 x85 +29 x95 +17 x105 +29 x115 +7 x125
  +8 x135 +13 x145 +33 x155 +28 x165 +13 x175 +22 x185 +24 x195 +35 x205 -221 x5 <= +0
 c26: +12 x16 +5 x26 +15 x36 +24 x46 +19 x56 +14 x66 +26 x76 +10 x86 +29 x96 +17 x106 +29 x116 +7 x126
  +8 x136 +13 x146 +33 x156 +28 x166 +13 x176 +22 x186 +24 x196 +35 x206 -132 x6 <= +0
 c27: +12 x17 +5 x27 +15 x37 +24 x47 +19 x57 +14 x67 +26 x77 +10 x87 +29 x97 +17 x107 +29 x117 +7 x127
  +8 x137 +13 x147 +33 x157 +28 x167 +13 x177 +22 x187 +24 x197 +35 x207 -247 x7 <= +0
 c28: +12 x18 +5 x28 +15 x38 +24 x48 +19 x58 +14 x68 +26 x78 +10 x88 +29 x98 +17 x108 +29 x118 +7 x128
  +8 x138 +13 x148 +33 x158 +28 x168 +13 x178 +22 x188 +24 x198 +35 x208 -235 x8 <= +0
 c29: +12 x19 +5 x29 +15 x39 +24 x49 +19 x59 +14 x69 +26 x79 +10 x89 +29 x99 +17 x109 +29 x119 +7 x129
  +8 x139 +13 x149 +33 x159 +28 x169 +13 x179 +22 x189 +24 x199 +35 x209 -189 x9 <= +0
 c30: +238 x0 +83 x1 +241 x2 +149 x3 +181 x4 +221 x5 +132 x6 +247 x7 +235 x8 +189 x9 >= +383
 c31: +1 x10 -1 x0 <= +0
 c32: +1 x11 -1 x1 <= +0
 c33: +1 x12 -1 x2 <= +0
 c34: +1 x13 -1 x3 <= +0
 c35: +1 x14 -1 x4 <= +0
 c36: +1 x15 -1 x5 <= +0
 c37: +1 x16 -1 x6 <= +0
 c38: +1 x17 -1 x7 <= +0
 c39: +1 x18 -1 x8 <= +0
 c40: +1 x19 -1 x9 <= +0
 c41: +1 x20 -1 x0 <= +0
 c42: +1 x21 -1 x1 <= +0
 c43: +1 x22 -1 x2 <= +0
 c44: +1 x23 -1 x3 <= +0
 c45: +1 x24 -1 x4 <= +0
 c46: +1 x25 -1 x5 <= +0
 c47: +1 x26 -1 x6 <= +0
 c48: +1 x27 -1 x7 <= +0
 c49: +1 x28 -1 x8 <= +0
 c50: +1 x29 -1 x9 <= +0
 c51: +1 x30 -1 x0 <= +0
 c52: +1 x31 -1 x1 <= +0
 c53: +1 x32 -1 x2 <= +0
 c54: +1 x33 -1 x3 <= +0
 c55: +1 x34 -1 x4 <= +0
 c56: +1 x35 -1 x5 <= +0
 c57: +1 x36 -1 x6 <= +0
 c58: +1 x37 -1 x7 <= +0
 c59: +1 x38 -1 x8 <= +0
 c60: +1 x39 -1 x9 <= +0
 c61: +1 x40 -1 x0 <= +0
 c62: +1 x41 -1 x1 <= +0
 c63: +1 x42 -1 x2 <= +0
 c64: +1 x43 -1 x3 <= +0
 c65: +1 x44 -1 x4 <= +0
 c66: +1 x45 -1 x5 <= +0
 c67: +1 x46 -1 x6 <= +0
 c68: +1 x47 -1 x7 <= +0
 c69: +1 x48 -1 x8 <= +0
 c70: +1 x49 -1 x9 <= +0
 c71: +1 x50 -1 x0 <= +0
 c72: +1 x51 -1 x1 <= +0
 c73: +1 x52 -1 x2 <= +0
 c74: +1 x53 -1 x3 <= +0
 c75: +1 x54 -1 x4 <= +0
 c76: +1 x55 -1 x5 <= +0
 c77: +1 x56 -1 x6 <= +0
 c78: +1 x57 -1 x7 <= +0
 c79: +1 x58 -1 x8 <= +0
 c80: +1 x59 -1 x9 <= +0
 c81: +1 x60 -1 x0 <= +0
 c82: +1 x61 -1 x1 <= +0
 c83: +1 x62 -1 x2 <= +0
 c84: +1 x63 -1 x3 <= +0
 c85: +1 x64 -1 x4 <= +0
 c86: +1 x65 -1 x5 <= +0
 c87: +1 x66 -1 x6 <= +0
 c88: +1 x67 -1 x7 <= +0
 c89: +1 x68 -1 x8 <= +0
 c90: +1 x69 -1 x9 <= +0
 c91: +1 x70 -1 x0 <= +0
 c92: +1 x71 -1 x1 <= +0
 c93: +1 x72 -1 x2 <= +0
 c94: +1 x73 -1 x3 <= +0
 c95: +1 x74 -1 x4 <= +0
 c96: +1 x75 -1 x5 <= +0
 c97: +1 x76 -1 x6 <= +0
 c98: +1 x77 -1 x7 <= +0
 c99: +1 x78 -1 x8 <= +0
 c100: +1 x79 -1 x9 <= +0
 c101: +1 x80 -1 x0 <= +0
 c102: +1 x81 -1 x1 <= +0
 c103: +1 x82 -1 x2 <= +0
 c104: +1 x83 -1 x3 <= +0
 c105: +1 x84 -1 x4 <= +0
 c106: +1 x85 -1 x5 <= +0
 c107: +1 x86 -1 x6 <= +0
 c108: +1 x87 -1 x7 <= +0
 c109: +1 x88 -1 x8 <= +0
 c110: +1 x89 -1 x9 <= +0
 c111: +1 x90 -1 x0 <= +0
 c112: +1 x91 -1 x1 <= +0
 c113: +1 x92 -1 x2 <= +0
 c114: +1 x93 -1 x3 <= +0
 c115: +1 x94 -1 x4 <= +0
 c116: +1 x95 -1 x5 <= +0
 c117: +1 x96 -1 x6 <= +0
 c118: +1 x97 -1 x7 <= +0
 c119: +1 x98 -1 x8 <= +0
 c120: +1 x99 -1 x9 <= +0
 c121: +1 x100 -1 x0 <= +0
 c122: +1 x101 -1 x1 <= +0
 c123: +1 x102 -1 x2 <= +0
 c124: +1 x103 -1 x3 <= +0
 c125: +1 x104 -1 x4 <= +0
 c126: +1 x105 -1 x5 <= +0
 c127: +1 x106 -1 x6 <= +0
 c128: +1 x107 -1 x7 <= +0
 c129: +1 x108 -1 x8 <= +0
 c130: +1 x109 -1 x9 <= +0
 c131: +1 x110 -1 x0 <= +0
 c132: +1 x111 -1 x1 <= +0
 c133: +1 x112 -1 x2 <= +0
 c134: +1 x113 -1 x3 <= +0
 c135: +1 x114 -1 x4 <= +0
 c136: +1 x115 -1 x5 <= +0
 c137: +1 x116 -1 x6 <= +0
 c138: +1 x117 -1 x7 <= +0
 c139: +1 x118 -1 x8 <= +0
 c140: +1 x119 -1 x9 <= +0
 c141: +1 x120 -1 x0 <= +0
 c142: +1 x121 -1 x1 <= +0
 c143: +1 x122 -1 x2 <= +0
 c144: +1 x123 -1 x3 <= +0
 c145: +1 x124 -1 x4 <= +0
 c146: +1 x125 -1 x5 <= +0
 c147: +1 x126 -1 x6 <= +0
 c148: +1 x127 -1 x7 <= +0
 c149: +1 x128 -1 x8 <= +0
 c150: +1 x129 -1 x9 <= +0
 c151: +1 x130 -1 x0 <= +0
 c152: +1 x131 -1 x1 <= +0
 c153: +1 x132 -1 x2 <= +0
 c154: +1 x133 -1 x3 <= +0
 c155: +1 x134 -1 x4 <= +0
 c156: +1 x135 -1 x5 <= +0
 c157: +1 x136 -1 x6 <= +0
 c158: +1 x137 -1 x7 <= +0
 c159: +1 x138 -1 x8 <= +0
 c160: +1 x139 -1 x9 <= +0
 c161: +1 x140 -1 x0 <= +0
 c162: +1 x141 -1 x1 <= +0
 c163: +1 x142 -1 x2 <= +0
 c164: +1 x143 -1 x3 <= +0
 c165: +1 x144 -1 x4 <= +0
 c166: +1 x145 -1 x5 <= +0
 c167: +1 x146 -1 x6 <= +0
 c168: +1 x147 -1 x7 <= +0
 c169: +1 x148 -1 x8 <= +0
 c170: +1 x149 -1 x9 <= +0
 c171: +1 x150 -1 x0 <= +0
 c172: +1 x151 -1 x1 <= +0
 c173: +1 x152 -1 x2 <= +0
 c174: +1 x153 -1 x3 <= +0
 c175: +1 x154 -1 x4 <= +0
 c176: +1 x155 -1 x5 <= +0
 c177: +1 x156 -1 x6 <= +0
 c178: +1 x157 -1 x7 <= +0
 c179: +1 x158 -1 x8 <= +0
 c180: +1 x159 -1 x9 <= +0
 c181: +1 x160 -1 x0 <= +0
 c182: +1 x161 -1 x1 <= +0
 c183: +1 x162 -1 x2 <= +0
 c184: +1 x163 -1 x3 <= +0
 c185: +1 x164 -1 x4 <= +0
 c186: +1 x165 -1 x5 <= +0
 c187: +1 x166 -1 x6 <= +0
 c188: +1 x167 -1 x7 <= +0
 c189: +1 x168 -1 x8 <= +0
 c190: +1 x169 -1 x9 <= +0
 c191: +1 x170 -1 x0 <= +0
 c192: +1 x171 -1 x1 <= +0
 c193: +1 x172 -1 x2 <= +0
 c194: +1 x173 -1 x3 <= +0
 c195: +1 x174 -1 x4 <= +0
 c196: +1 x175 -1 x5 <= +0
 c197: +1 x176 -1 x6 <= +0
 c198: +1 x177 -1 x7 <= +0
 c199: +1 x178 -1 x8 <= +0
 c200: +1 x179 -1 x9 <= +0
 c201: +1 x180 -1 x0 <= +0
 c202: +1 x181 -1 x1 <= +0
 c203: +1 x182 -1 x2 <= +0
 c204: +1 x183 -1 x3 <= +0
 c205: +1 x184 -1 x4 <= +0
 c206: +1 x185 -1 x5 <= +0
 c207: +1 x186 -1 x6 <= +0
 c208: +1 x187 -1 x7 <= +0
 c209: +1 x188 -1 x8 <= +0
 c210: +1 x189 -1 x9 <= +0
 c211: +1 x190 -1 x0 <= +0
 c212: +1 x191 -1 x1 <= +0
 c213: +1 x192 -1 x2 <= +0
 c214: +1 x193 -1 x3 <= +0
 c215: +1 x194 -1 x4 <= +0
 c216: +1 x195 -1 x5 <= +0
 c217: +1 x196 -1 x6 <= +0
 c218: +1 x197 -1 x7 <= +0
 c219: +1 x198 -1 x8 <= +0
 c220: +1 x199 -1 x9 <= +0
 c221: +1 x200 -1 x0 <= +0
 c222: +1 x201 -1 x1 <= +0
 c223: +1 x202 -1 x2 <= +0
 c224: +1 x203 -1 x3 <= +0
 c225: +1 x204 -1 x4 <= +0
 c226: +1 x205 -1 x5 <= +0
 c227: +1 x206 -1 x6 <= +0
 c228: +1 x207 -1 x7 <= +0
 c229: +1 x208 -1 x8 <= +0
 c230: +1 x209 -1 x9 <= +0
Bounds
 0 <= x0 <= 1
 0 <= x1 <= 1
 0 <= x2 <= 1
 0 <= x3 <= 1
 0 <= x4 <= 1
 0 <= x5 <= 1
 0 <= x6 <= 1
 0 <= x7 <= 1
 0 <= x8 <= 1
 0 <= x9 <= 1
 0 <= x10 <= 1
 0 <= x11 <= 1
 0 <= x12 <= 1
 0 <= x13 <= 1
 0 <= x14 <= 1
 0 <= x15 <= 1
 0 <= x16 <= 1
 0 <= x17 <= 1
 0 <= x18 <= 1
 0 <= x19 <= 1
 0 <= x20 <= 1
 0 <= x21 <= 1
 0 <= x22 <= 1
 0 <= x23 <= 1
 0 <= x24 <= 1
 0 <= x25 <= 1
 0 <= x26 <= 1
 0 <= x27 <= 1
 0 <= x28 <= 1
 0 <= x29 <= 1
 0 <= x30 <= 1
 0 <= x31 <= 1
 0 <= x32 <= 1
 0 <= x33 <= 1
 0 <= x34 <= 1
 0 <= x35 <= 1
 0 <= x36 <= 1
 0 <= x37 <= 1
 0 <= x38 <= 1
 0 <= x39 <= 1
 0 <= x40 <= 1
 0 <= x41 <= 1
 0 <= x42 <= 1
 0 <= x43 <= 1
 0 <= x44 <= 1
 0 <= x45 <= 1
 0 <= x46 <= 1
 0 <= x47 <= 1
 0 <= x48 <= 1
 0 <= x49 <= 1
 0 <= x50 <= 1
 0 <= x51 <= 1
 0 <= x52 <= 1
 0 <= x53 <= 1
 0 <= x54 <= 1
 0 <= x55 <= 1
 0 <= x56 <= 1
 0 <= x57 <= 1
 0 <= x58 <= 1
 0 <= x59 <= 1
 0 <= x60 <= 1
 0 <= x61 <= 1
 0 <= x62 <= 1
 0 <= x63 <= 1
 0 <= x64 <= 1
 0 <= x65 <= 1
 0 <= x66 <= 1
 0 <= x67 <= 1
 0 <= x68 <= 1
 0 <= x69 <= 1
 0 <= x70 <= 1
 0 <= x71 <= 1
 0 <= x72 <= 1
 0 <= x73 <= 1
 0 <= x74 <= 1
 0 <= x75 <= 1
 0 <= x76 <= 1
 0 <= x77 <= 1
 0 <= x78 <= 1
 0 <= x79 <= 1
 0 <= x80 <= 1
 0 <= x81 <= 1
 0 <= x82 <= 1
 0 <= x83 <= 1
 0 <= x84 <= 1
 0 <= x85 <= 1
 0 <= x86 <= 1
 0 <= x87 <= 1
 0 <= x88 <= 1
 0 <= x89 <= 1
 0 <= x90 <= 1
 0 <= x91 <= 1
 0 <= x92 <= 1
 0 <= x93 <= 1
 0 <= x94 <= 1
 0 <= x95 <= 1
 0 <= x96 <= 1
 0 <= x97 <= 1
 0 <= x98 <= 1
 0 <= x99 <= 1
 0 <= x100 <= 1
 0 <= x101 <= 1
 0 <= x102 <= 1
 0 <= x103 <= 1
 0 <= x104 <= 1
 0 <= x105 <= 1
 0 <= x106 <= 1
 0 <= x107 <= 1
 0 <= x108 <= 1
 0 <= x109 <= 1
 0 <= x110 <= 1
 0 <= x111 <= 1
 0 <= x112 <= 1
 0 <= x113 <= 1
 0 <= x114 <= 1
 0 <= x115 <= 1
 0 <= x116 <= 1
 0 <= x117 <= 1
 0 <= x118 <= 1
 0 <= x119 <= 1
 0 <= x120 <= 1
 0 <= x121 <= 1
 0 <= x122 <= 1
 0 <= x123 <= 1
 0 <= x124 <= 1
 0 <= x125 <= 1
 0 <= x126 <= 1
 0 <= x127 <= 1
 0 <= x128 <= 1
 0 <= x129 <= 1
 0 <= x130 <= 1
 0 <= x131 <= 1
 0 <= x132 <= 1
 0 <= x133 <= 1
 0 <= x134 <= 1
 0 <= x135 <= 1
 0 <= x136 <= 1
 0 <= x137 <= 1
 0 <= x138 <= 1
 0 <= x139 <= 1
 0 <= x140 <= 1
 0 <= x141 <= 1
 0 <= x142 <= 1
 0 <= x143 <= 1
 0 <= x144 <= 1
 0 <= x145 <= 1
 0 <= x146 <= 1
 0 <= x147 <= 1
 0 <= x148 <= 1
 0 <= x149 <= 1
 0 <= x150 <= 1
 0 <= x151 <= 1
 0 <= x152 <= 1
 0 <= x153 <= 1
 0 <= x154 <= 1
 0 <= x155 <= 1
 0 <= x156 <= 1
 0 <= x157 <= 1
 0 <= x158 <= 1
 0 <= x159 <= 1
 0 <= x160 <= 1
 0 <= x161 <= 1
 0 <= x162 <= 1
 0 <= x163 <= 1
 0 <= x164 <= 1
 0 <= x165 <= 1
 0 <= x166 <= 1
 0 <= x167 <= 1
 0 <= x168 <= 1
 0 <= x169 <= 1
 0 <= x170 <= 1
 0 <= x171 <= 1
 0 <= x172 <= 1
 0 <= x173 <= 1
 0 <= x174 <= 1
 0 <= x175 <= 1
 0 <= x176 <= 1
 0 <= x177 <= 1
 0 <= x178 <= 1
 0 <= x179 <= 1
 0 <= x180 <= 1
 0 <= x181 <= 1
 0 <= x182 <= 1
 0 <= x183 <= 1
 0 <= x184 <= 1
 0 <= x185 <= 1
 0 <= x186 <= 1
 0 <= x187 <= 1
 0 <= x188 <= 1
 0 <= x189 <= 1
 0 <= x190 <= 1
 0 <= x191 <= 1
 0 <= x192 <= 1
 0 <= x193 <= 1
 0 <= x194 <= 1
 0 <= x195 <= 1
 0 <= x196 <= 1
 0 <= x197 <= 1
 0 <= x198 <= 1
 0 <= x199 <= 1
 0 <= x200 <= 1
 0 <= x201 <= 1
 0 <= x202 <= 1
 0 <= x203 <= 1
 0 <= x204 <= 1
 0 <= x205 <= 1
 0 <= x206 <= 1
 0 <= x207 <= 1
 0 <= x208 <= 1
 0 <= x209 <= 1
Binaries
 x0 x1 x2 x3 x4 x5 x6 x7 x8 x9 x10 x11 x12 x13 x14 x15 x16 x17 x18 x19 x20 x21 x22 x23 x24 x25 x26 x27
 x28 x29 x30 x31 x32 x33 x34 x35 x36 x37 x38 x39 x40 x41 x42 x43 x44 x45 x46 x47 x48 x49 x50 x51 x52 x53
 x54 x55 x56 x57 x58 x59 x60 x61 x62 x63 x64 x65 x66 x67 x68 x69 x70 x71 x72 x73 x74 x75 x76 x77 x78 x79
 x80 x81 x82 x83 x84 x85 x86 x87 x88 x89 x90 x91 x92 x93 x94 x95 x96 x97 x98 x99 x100 x101 x102 x103 x104
 x105 x106 x107 x108 x109 x110 x111 x112 x113 x114 x115 x116 x117 x118 x119 x120 x121 x122 x123 x124 x125
 x126 x127 x128 x129 x130 x131 x132 x133 x134 x135 x136 x137 x138 x139 x140 x141 x142 x143 x144 x145 x146
 x147 x148 x149 x150 x151 x152 x153 x154 x155 x156 x157 x158 x159 x160 x161 x162 x163 x164 x165 x166 x167
 x168 x169 x170 x171 x172 x173 x174 x175 x176 x177 x178 x179 x180 x181 x182 x183 x184 x185 x186 x187 x188
 x189 x190 x191 x192 x193 x194 x195 x196 x197 x198 x199 x200 x201 x202 x203 x204 x205 x206 x207 x208 x209
End
